MARKOV
232
 2 2 2 2 2 2 2 2 2 2 2 2 2 2 2 2 2 2 2 2 2 2 2 2 2 2 2 2 2 2 2 2 2 2 2 2 2 2 2 2 2 2 2 2 2 2 2 2 2 2 2 2 2 2 2 2 2 2 2 2 2 2 2 2 2 2 2 2 2 2 2 2 2 2 2 2 2 2 2 2 2 2 2 2 2 2 2 2 2 2 2 2 2 2 2 2 2 2 2 2 2 2 2 2 2 2 2 2 2 2 2 2 2 2 2 2 2 2 2 2 2 2 2 2 2 2 2 2 2 2 2 2 2 2 2 2 2 2 2 2 2 2 2 2 2 2 2 2 2 2 2 2 2 2 2 2 2 2 2 2 2 2 2 2 2 2 2 2 2 2 2 2 2 2 2 2 2 2 2 2 2 2 2 2 2 2 2 2 2 2 2 2 2 2 2 2 2 2 2 2 2 2 2 2 2 2 2 2 2 2 2 2 2 2 2 2 2 2 2 2 2 2 2 2 2 2 2 2 2 2 2 2
868
1	0 
1	1 
1	2 
1	3 
1	4 
1	5 
1	6 
1	7 
1	8 
1	9 
1	10 
1	11 
1	12 
1	13 
1	14 
1	15 
1	16 
1	17 
1	18 
1	19 
1	20 
1	21 
1	22 
1	23 
1	24 
1	25 
1	26 
1	27 
1	28 
1	29 
1	30 
1	31 
1	32 
1	33 
1	34 
1	35 
1	36 
1	37 
1	38 
1	39 
1	40 
1	41 
1	42 
1	43 
1	44 
1	45 
1	46 
1	47 
1	48 
1	49 
1	50 
1	51 
1	52 
1	53 
1	54 
1	55 
1	56 
1	57 
1	58 
1	59 
1	60 
1	61 
1	62 
1	63 
1	64 
1	65 
1	66 
1	67 
1	68 
1	69 
1	70 
1	71 
1	72 
1	73 
1	74 
1	75 
1	76 
1	77 
1	78 
1	79 
1	80 
1	81 
1	82 
1	83 
1	84 
1	85 
1	86 
1	87 
1	88 
1	89 
1	90 
1	91 
1	92 
1	93 
1	94 
1	95 
1	96 
1	97 
1	98 
1	99 
1	100 
1	101 
1	102 
1	103 
1	104 
1	105 
1	106 
1	107 
1	108 
1	109 
1	110 
1	111 
1	112 
1	113 
1	114 
1	115 
1	116 
1	117 
1	118 
1	119 
1	120 
1	121 
1	122 
1	123 
1	124 
1	125 
1	126 
1	127 
1	128 
1	129 
1	130 
1	131 
1	132 
1	133 
1	134 
1	135 
1	136 
1	137 
1	138 
1	139 
1	140 
1	141 
1	142 
1	143 
1	144 
1	145 
1	146 
1	147 
1	148 
1	149 
1	150 
1	151 
1	152 
1	153 
1	154 
1	155 
1	156 
1	157 
1	158 
1	159 
1	160 
1	161 
1	162 
1	163 
1	164 
1	165 
1	166 
1	167 
1	168 
1	169 
1	170 
1	171 
1	172 
1	173 
1	174 
1	175 
1	176 
1	177 
1	178 
1	179 
1	180 
1	181 
1	182 
1	183 
1	184 
1	185 
1	186 
1	187 
1	188 
1	189 
1	190 
1	191 
1	192 
1	193 
1	194 
1	195 
1	196 
1	197 
1	198 
1	199 
1	200 
1	201 
1	202 
1	203 
1	204 
1	205 
1	206 
1	207 
1	208 
1	209 
1	210 
1	211 
1	212 
1	213 
1	214 
1	215 
1	216 
1	217 
1	218 
1	219 
1	220 
1	221 
1	222 
1	223 
1	224 
1	225 
1	226 
1	227 
1	228 
1	229 
1	230 
1	231 
2	1 2 
2	1 43 
2	1 186 
2	1 209 
2	1 214 
2	2 209 
2	2 211 
2	2 213 
2	3 4 
2	3 11 
2	3 27 
2	3 28 
2	3 190 
2	3 191 
2	4 5 
2	4 11 
2	4 191 
2	4 231 
2	5 6 
2	5 9 
2	5 11 
2	5 228 
2	5 231 
2	6 9 
2	6 10 
2	6 128 
2	6 129 
2	6 228 
2	7 8 
2	7 10 
2	7 127 
2	7 216 
2	7 220 
2	8 9 
2	8 10 
2	8 11 
2	8 27 
2	8 127 
2	9 10 
2	9 11 
2	10 128 
2	10 216 
2	11 27 
2	12 13 
2	12 14 
2	12 51 
2	12 64 
2	12 69 
2	12 82 
2	12 103 
2	13 15 
2	13 45 
2	13 51 
2	13 69 
2	14 81 
2	14 82 
2	14 97 
2	14 100 
2	14 103 
2	14 175 
2	15 45 
2	15 46 
2	15 67 
2	15 69 
2	15 93 
2	15 113 
2	15 118 
2	15 195 
2	16 18 
2	16 37 
2	16 153 
2	17 18 
2	17 19 
2	17 109 
2	18 19 
2	18 151 
2	18 153 
2	19 30 
2	19 34 
2	19 109 
2	19 111 
2	19 148 
2	19 151 
2	20 22 
2	20 23 
2	20 24 
2	21 22 
2	21 23 
2	21 25 
2	21 114 
2	21 116 
2	21 117 
2	22 23 
2	22 25 
2	23 24 
2	23 116 
2	23 192 
2	24 36 
2	24 192 
2	24 199 
2	25 114 
2	26 28 
2	26 29 
2	26 89 
2	26 189 
2	26 190 
2	27 28 
2	27 127 
2	28 190 
2	29 89 
2	29 91 
2	30 31 
2	30 33 
2	30 34 
2	30 74 
2	30 148 
2	31 32 
2	31 33 
2	31 34 
2	31 160 
2	32 34 
2	32 110 
2	32 111 
2	33 74 
2	33 159 
2	33 160 
2	34 111 
2	35 36 
2	35 37 
2	35 155 
2	35 197 
2	35 198 
2	36 198 
2	36 199 
2	37 153 
2	37 155 
2	38 39 
2	38 40 
2	38 41 
2	38 58 
2	38 60 
2	38 122 
2	38 173 
2	39 40 
2	39 58 
2	39 161 
2	39 162 
2	39 181 
2	40 41 
2	40 42 
2	40 181 
2	40 182 
2	41 42 
2	41 173 
2	41 204 
2	41 206 
2	42 182 
2	42 206 
2	43 44 
2	43 186 
2	43 187 
2	43 210 
2	43 214 
2	44 94 
2	44 95 
2	44 187 
2	44 210 
2	45 46 
2	45 49 
2	45 51 
2	46 47 
2	46 49 
2	46 93 
2	47 48 
2	47 49 
2	47 93 
2	47 96 
2	47 185 
2	48 49 
2	48 50 
2	48 52 
2	48 123 
2	48 184 
2	48 185 
2	49 51 
2	49 52 
2	50 52 
2	50 101 
2	50 102 
2	50 123 
2	50 125 
2	51 52 
2	51 103 
2	52 102 
2	53 54 
2	53 55 
2	53 56 
2	53 120 
2	53 121 
2	54 55 
2	54 56 
2	54 59 
2	54 138 
2	54 140 
2	55 57 
2	55 59 
2	55 120 
2	56 121 
2	56 140 
2	56 141 
2	57 59 
2	57 61 
2	57 62 
2	57 119 
2	57 120 
2	58 60 
2	58 61 
2	58 62 
2	58 161 
2	58 165 
2	59 61 
2	59 135 
2	59 167 
2	60 62 
2	60 122 
2	61 62 
2	61 165 
2	61 167 
2	62 119 
2	62 122 
2	63 64 
2	63 65 
2	63 66 
2	63 82 
2	63 83 
2	64 66 
2	64 69 
2	64 82 
2	65 66 
2	65 70 
2	66 69 
2	66 70 
2	67 68 
2	67 69 
2	67 70 
2	67 113 
2	68 70 
2	68 113 
2	68 115 
2	69 70 
2	71 72 
2	71 74 
2	71 75 
2	71 94 
2	71 149 
2	71 159 
2	71 210 
2	72 75 
2	72 76 
2	72 210 
2	73 75 
2	73 76 
2	73 131 
2	73 215 
2	73 219 
2	74 148 
2	74 149 
2	74 159 
2	75 76 
2	75 156 
2	75 159 
2	75 219 
2	76 131 
2	76 209 
2	76 210 
2	76 214 
2	77 79 
2	77 80 
2	77 81 
2	77 175 
2	77 207 
2	78 79 
2	78 80 
2	78 83 
2	78 84 
2	79 80 
2	79 81 
2	79 84 
2	80 203 
2	80 207 
2	81 82 
2	81 84 
2	81 175 
2	82 83 
2	82 84 
2	83 84 
2	85 86 
2	85 145 
2	85 211 
2	85 212 
2	85 213 
2	86 87 
2	86 145 
2	86 147 
2	86 212 
2	86 227 
2	87 147 
2	87 177 
2	87 226 
2	87 227 
2	88 89 
2	88 90 
2	88 91 
2	88 92 
2	88 139 
2	88 142 
2	89 90 
2	89 91 
2	89 189 
2	90 140 
2	90 188 
2	90 189 
2	91 92 
2	92 142 
2	93 96 
2	93 193 
2	93 195 
2	94 95 
2	94 149 
2	94 150 
2	94 210 
2	95 96 
2	95 150 
2	95 154 
2	95 185 
2	95 187 
2	95 196 
2	96 185 
2	96 193 
2	96 196 
2	96 202 
2	97 98 
2	97 100 
2	97 108 
2	97 175 
2	98 99 
2	98 100 
2	98 107 
2	98 108 
2	98 124 
2	98 172 
2	99 100 
2	99 101 
2	99 102 
2	99 124 
2	99 125 
2	100 102 
2	100 103 
2	101 102 
2	101 125 
2	102 103 
2	104 105 
2	104 106 
2	104 107 
2	104 108 
2	104 143 
2	104 144 
2	105 106 
2	105 108 
2	105 174 
2	105 175 
2	106 144 
2	106 173 
2	106 174 
2	107 108 
2	107 143 
2	107 171 
2	107 172 
2	108 175 
2	109 110 
2	109 111 
2	110 111 
2	112 113 
2	112 114 
2	112 115 
2	112 117 
2	112 118 
2	113 115 
2	113 118 
2	113 195 
2	114 117 
2	116 117 
2	116 118 
2	116 192 
2	116 195 
2	117 118 
2	118 195 
2	119 120 
2	119 122 
2	119 221 
2	119 224 
2	120 121 
2	120 176 
2	120 221 
2	120 225 
2	121 141 
2	121 146 
2	121 176 
2	121 229 
2	121 230 
2	122 144 
2	122 173 
2	122 224 
2	123 125 
2	123 184 
2	123 186 
2	123 213 
2	124 125 
2	124 172 
2	124 212 
2	124 213 
2	125 213 
2	126 127 
2	126 158 
2	126 217 
2	126 218 
2	126 220 
2	127 220 
2	128 129 
2	128 130 
2	128 132 
2	128 216 
2	129 130 
2	129 145 
2	129 147 
2	129 228 
2	130 132 
2	130 133 
2	130 145 
2	130 211 
2	131 132 
2	131 133 
2	131 209 
2	131 215 
2	132 133 
2	132 215 
2	132 216 
2	133 209 
2	133 211 
2	134 135 
2	134 137 
2	134 168 
2	135 137 
2	135 138 
2	135 167 
2	135 168 
2	136 137 
2	136 139 
2	136 142 
2	137 138 
2	137 139 
2	138 139 
2	138 140 
2	139 140 
2	139 142 
2	140 141 
2	140 188 
2	141 188 
2	141 191 
2	141 229 
2	143 144 
2	143 171 
2	143 222 
2	143 223 
2	144 173 
2	144 222 
2	144 224 
2	145 147 
2	145 211 
2	146 147 
2	146 176 
2	146 177 
2	146 178 
2	146 228 
2	146 230 
2	147 177 
2	147 228 
2	148 149 
2	148 151 
2	149 150 
2	149 151 
2	150 151 
2	150 152 
2	150 154 
2	151 152 
2	151 153 
2	152 153 
2	152 154 
2	152 155 
2	153 155 
2	154 155 
2	154 196 
2	154 200 
2	155 197 
2	155 200 
2	156 157 
2	156 158 
2	156 159 
2	156 219 
2	157 158 
2	157 159 
2	157 160 
2	158 218 
2	158 219 
2	159 160 
2	161 162 
2	161 164 
2	161 165 
2	161 166 
2	162 163 
2	162 164 
2	162 180 
2	162 181 
2	163 164 
2	163 180 
2	164 166 
2	164 170 
2	165 166 
2	165 167 
2	166 167 
2	166 169 
2	166 170 
2	167 168 
2	167 169 
2	168 169 
2	169 170 
2	171 172 
2	171 223 
2	171 226 
2	171 227 
2	172 212 
2	172 227 
2	173 174 
2	173 204 
2	173 205 
2	174 175 
2	174 205 
2	174 207 
2	175 207 
2	176 178 
2	176 225 
2	177 178 
2	177 226 
2	178 225 
2	178 226 
2	179 180 
2	179 181 
2	179 182 
2	179 183 
2	180 181 
2	180 183 
2	181 182 
2	184 185 
2	184 186 
2	184 187 
2	185 187 
2	186 187 
2	186 213 
2	188 189 
2	188 190 
2	188 191 
2	189 190 
2	190 191 
2	191 229 
2	191 231 
2	192 194 
2	192 195 
2	192 199 
2	193 194 
2	193 195 
2	193 202 
2	194 195 
2	194 199 
2	194 201 
2	194 202 
2	196 200 
2	196 202 
2	197 198 
2	197 200 
2	197 201 
2	198 199 
2	198 201 
2	199 201 
2	200 201 
2	200 202 
2	201 202 
2	203 205 
2	203 207 
2	203 208 
2	204 205 
2	204 206 
2	204 208 
2	205 207 
2	205 208 
2	206 208 
2	209 211 
2	209 214 
2	210 214 
2	211 213 
2	212 213 
2	212 227 
2	215 216 
2	215 217 
2	215 218 
2	215 219 
2	216 217 
2	216 220 
2	217 218 
2	217 220 
2	218 219 
2	221 222 
2	221 223 
2	221 224 
2	221 225 
2	222 223 
2	222 224 
2	223 225 
2	223 226 
2	225 226 
2	226 227 
2	228 230 
2	228 231 
2	229 230 
2	229 231 
2	230 231 
0	

2
 0.252912 1
2
 0.173533 1
2
 0.145517 1
2
 1 0.149087
2
 1 0.43249
2
 1 0.30742
2
 1 0.322881
2
 1 0.217017
2
 1 0.272996
2
 1 0.463676
2
 1 0.327486
2
 1 0.185871
2
 0.875616 1
2
 0.634421 1
2
 0.709589 1
2
 0.553477 1
2
 0.855856 1
2
 1 0.615864
2
 1 0.776824
2
 1 0.708734
2
 1 0.306921
2
 1 0.611749
2
 1 0.162704
2
 1 0.922706
2
 1 0.466556
2
 1 0.204361
2
 1 0.136559
2
 1 0.222032
2
 1 0.0882656
2
 1 0.0876388
2
 1 0.193554
2
 1 0.304237
2
 1 0.4009
2
 1 0.232952
2
 1 0.236865
2
 1 0.522503
2
 1 0.936664
2
 1 0.879473
2
 1 0.241898
2
 1 0.108777
2
 1 0.178398
2
 1 0.254576
2
 1 0.108347
2
 0.677083 1
2
 0.224824 1
2
 1 0.15197
2
 1 0.645996
2
 1 0.361574
2
 1 0.626182
2
 1 0.20335
2
 1 0.577397
2
 1 0.338492
2
 1 0.277284
2
 1 0.256406
2
 1 0.247965
2
 1 0.210373
2
 1 0.603334
2
 1 0.173672
2
 1 0.188992
2
 1 0.131776
2
 1 0.591173
2
 1 0.233687
2
 1 0.334051
2
 1 0.109077
2
 1 0.96004
2
 1 0.154673
2
 1 0.193316
2
 1 0.539171
2
 1 0.137886
2
 1 0.753843
2
 1 0.0565247
2
 1 0.772298
2
 0.494992 1
2
 1 0.481424
2
 1 0.28442
2
 1 0.28282
2
 0.651486 1
2
 1 0.953585
2
 1 0.0843362
2
 1 0.15365
2
 1 0.0943592
2
 0.985319 1
2
 1 0.53164
2
 1 0.106441
2
 1 0.242786
2
 0.176965 1
2
 0.261217 1
2
 0.217491 1
2
 1 0.329868
2
 1 0.250364
2
 1 0.253936
2
 1 0.202813
2
 1 0.123235
2
 0.38736 1
2
 0.723567 1
2
 0.339049 1
2
 0.464037 1
2
 1 0.359049
2
 1 0.214136
2
 1 0.58234
2
 1 0.215935
2
 1 0.407226
2
 1 0.28641
2
 1 0.46203
2
 0.338586 1
2
 1 0.183264
2
 0.844127 1
2
 1 0.731802
2
 1 0.591458
2
 1 0.24875
2
 1 0.194527
2
 1 0.219463
2
 1 0.0779795
2
 1 0.308063
2
 1 0.162469
2
 1 0.0990248
2
 1 0.21457
2
 1 0.15423
2
 1 0.0932878
2
 0.228358 1
2
 0.22212 1
2
 0.325592 1
2
 0.138513 1
2
 0.151636 1
2
 0.215839 1
2
 0.285345 1
2
 1 0.304835
2
 1 0.677884
2
 1 0.768918
2
 0.521767 1
2
 0.476866 1
2
 0.870363 1
2
 1 0.880738
2
 0.346341 1
2
 1 0.0486474
2
 1 0.0903815
2
 1 0.236456
2
 1 0.0492902
2
 1 0.133566
2
 1 0.32326
2
 1 0.379366
2
 1 0.475088
2
 1 0.180709
2
 0.0973095 1
2
 0.157388 1
2
 1 0.50091
2
 1 0.916854
2
 1 0.668154
2
 1 0.16024
2
 1 0.543265
2
 1 0.393145
2
 1 0.48791
2
 1 0.15905
2
 1 0.354041
2
 1 0.941015
2
 1 0.356627
2
 1 0.397816
2
 0.990072 1
2
 1 0.281577
2
 1 0.31821
2
 0.964503 1
2
 1 0.257565
2
 1 0.179809
2
 1 0.0646235
2
 1 0.1063
2
 1 0.295232
2
 1 0.111231
2
 1 0.176196
2
 1 0.0813071
2
 1 0.0980286
2
 1 0.0741615
2
 0.20104 1
2
 0.382991 1
2
 0.35531 1
2
 0.382641 1
2
 0.42401 1
2
 0.212797 1
2
 0.17818 1
2
 0.169144 1
2
 1 0.126652
2
 1 0.0465474
2
 1 0.128128
2
 1 0.0835955
2
 1 0.0521699
2
 1 0.417848
2
 1 0.358501
2
 1 0.877898
2
 1 0.361234
2
 1 0.268047
2
 1 0.24233
2
 1 0.329601
2
 1 0.290319
2
 1 0.514592
2
 0.651312 1
2
 1 0.242723
2
 1 0.563349
2
 1 0.883149
2
 1 0.317301
2
 1 0.483947
2
 1 0.96062
2
 1 0.227883
2
 1 0.220538
2
 1 0.622579
2
 1 0.0935538
2
 1 0.605566
2
 0.844311 1
2
 1 0.11332
2
 1 0.966763
2
 1 0.131474
2
 0.793475 1
2
 0.543223 1
2
 1 0.574425
2
 1 0.303207
2
 1 0.246742
2
 1 0.368399
2
 1 0.421054
2
 1 0.361741
2
 1 0.282918
2
 1 0.288543
2
 1 0.454812
2
 1 0.455282
2
 1 0.281764
2
 0.338165 1
2
 1 0.745897
2
 1 0.25381
2
 1 0.617657
2
 1 0.278498
2
 1 0.46437
2
 0.497252 1
2
 1 0.826614
2
 0.357617 1
2
 1 0.401808
4
 1 0.311623 0.311623 0.994363
4
 1 0.315747 0.315747 0.993024
4
 1 0.311785 0.311785 0.997943
4
 1 0.313783 0.313783 0.990239
4
 1 0.315387 0.315387 0.990907
4
 1 0.3126 0.3126 0.990072
4
 1 0.309472 0.309472 0.992577
4
 1 0.307789 0.307789 0.99811
4
 1 0.298932 0.298932 0.972272
4
 1 0.30236 0.30236 0.967643
4
 1 0.304216 0.304216 0.963956
4
 1 0.300272 0.300272 0.965906
4
 1 0.297111 0.297111 0.970417
4
 1 0.296202 0.296202 0.97506
4
 1 0.299973 0.299973 0.976047
4
 1 0.301879 0.301879 0.970964
4
 1 0.295731 0.295731 0.978406
4
 1 0.297393 0.297393 0.979671
4
 1 0.303742 0.303742 0.975939
4
 1 0.30437 0.30437 0.972984
4
 1 0.303412 0.303412 0.9714
4
 1 0.300441 0.300441 0.980993
4
 1 0.298903 0.298903 0.980112
4
 1 0.306638 0.306638 0.972438
4
 1 0.309311 0.309311 0.971947
4
 1 0.307685 0.307685 0.975775
4
 1 0.304685 0.304685 0.980003
4
 1 0.302679 0.302679 0.980443
4
 1 0.3144 0.3144 0.961147
4
 1 0.314809 0.314809 0.964283
4
 1 0.317786 0.317786 0.957538
4
 1 0.317274 0.317274 0.963472
4
 1 0.319191 0.319191 0.959153
4
 1 0.309547 0.309547 0.965853
4
 1 0.312246 0.312246 0.965366
4
 1 0.308573 0.308573 0.964282
4
 1 0.310467 0.310467 0.960607
4
 1 0.315199 0.315199 0.958614
4
 1 0.309951 0.309951 0.969005
4
 1 0.306305 0.306305 0.967916
4
 1 0.31101 0.31101 0.97233
4
 1 0.315101 0.315101 0.967701
4
 1 0.307215 0.307215 0.962658
4
 0.959389 0.282168 0.282168 1
4
 0.956862 0.27607 0.27607 1
4
 0.962249 0.283006 0.283006 1
4
 0.953964 0.276504 0.276504 1
4
 0.956001 0.280028 0.280028 1
4
 0.953322 0.274508 0.274508 1
4
 0.960954 0.280333 0.280333 1
4
 0.962518 0.288915 0.288915 1
4
 0.965008 0.288831 0.288831 1
4
 0.964087 0.286558 0.286558 1
4
 0.957828 0.283542 0.283542 1
4
 0.952841 0.27019 0.27019 1
4
 0.952627 0.271945 0.271945 1
4
 0.959445 0.274411 0.274411 1
4
 0.960685 0.276437 0.276437 1
4
 0.960253 0.277716 0.277716 1
4
 0.95477 0.270207 0.270207 1
4
 0.966308 0.292072 0.292072 1
4
 0.968318 0.295164 0.295164 1
4
 0.959603 0.288887 0.288887 1
4
 0.959119 0.286724 0.286724 1
4
 0.969351 0.297287 0.297287 1
4
 0.960357 0.291259 0.291259 1
4
 0.962841 0.294593 0.294593 1
4
 0.96685 0.296878 0.296878 1
4
 1 0.346077 0.346077 0.973211
4
 1 0.34302 0.34302 0.980892
4
 1 0.341639 0.341639 0.978966
4
 1 0.350174 0.350174 0.965428
4
 1 0.350973 0.350973 0.961155
4
 1 0.355288 0.355288 0.956471
4
 1 0.348415 0.348415 0.965211
4
 1 0.344262 0.344262 0.971464
4
 1 0.343164 0.343164 0.975235
4
 1 0.347663 0.347663 0.959105
4
 1 0.350283 0.350283 0.956363
4
 1 0.353504 0.353504 0.956256
4
 1 0.35216 0.35216 0.95588
4
 1 0.346435 0.346435 0.963315
4
 1 0.345047 0.345047 0.967164
4
 0.967608 0.30998 0.30998 1
4
 0.971255 0.311369 0.311369 1
4
 0.976998 0.316751 0.316751 1
4
 0.960409 0.30329 0.30329 1
4
 0.964029 0.30465 0.30465 1
4
 0.955085 0.29897 0.29897 1
4
 0.953585 0.295596 0.295596 1
4
 0.962407 0.301937 0.301937 1
4
 0.95777 0.298443 0.298443 1
4
 0.966359 0.307707 0.307707 1
4
 0.957393 0.301971 0.301971 1
4
 0.975738 0.314429 0.314429 1
4
 0.96837 0.306334 0.306334 1
4
 0.973221 0.310352 0.310352 1
4
 0.987644 0.325214 0.325214 1
4
 0.978976 0.315716 0.315716 1
4
 0.984377 0.321199 0.321199 1
4
 0.950591 0.29431 0.29431 1
4
 1 0.297226 0.297226 0.964604
4
 1 0.289551 0.289551 0.968075
4
 1 0.290603 0.290603 0.970034
4
 1 0.292758 0.292758 0.969273
4
 1 0.294096 0.294096 0.96911
4
 1 0.305094 0.305094 0.960929
4
 1 0.313812 0.313812 0.957
4
 1 0.297969 0.297969 0.967371
4
 1 0.286826 0.286826 0.971778
4
 1 0.284045 0.284045 0.973526
4
 1 0.347718 0.347718 0.951862
4
 1 0.344891 0.344891 0.955771
4
 1 0.34873 0.34873 0.954538
4
 1 0.342702 0.342702 0.96056
4
 1 0.344899 0.344899 0.961477
4
 1 0.352444 0.352444 0.944673
4
 1 0.346482 0.346482 0.950366
4
 1 0.350339 0.350339 0.94914
4
 1 0.347841 0.347841 0.945947
4
 1 0.353469 0.353469 0.94733
4
 1 0.358817 0.358817 0.94192
4
 1 0.355364 0.355364 0.946852
4
 1 0.341484 0.341484 0.95905
4
 1 0.341028 0.341028 0.955717
4
 1 0.345013 0.345013 0.949832
4
 1 0.353241 0.353241 0.951328
4
 0.999583 0.334938 0.334938 1
4
 1 0.339478 0.339478 0.989745
4
 1 0.336092 0.336092 0.992471
4
 1 0.33461 0.33461 0.996492
4
 1 0.334192 0.334192 0.999406
4
 0.994824 0.330114 0.330114 1
4
 0.990532 0.326572 0.326572 1
4
 1 0.340132 0.340132 0.982932
4
 1 0.338101 0.338101 0.987579
4
 0.944536 0.246311 0.246311 1
4
 0.939933 0.243754 0.243754 1
4
 0.940989 0.246031 0.246031 1
4
 0.950922 0.251063 0.251063 1
4
 0.948948 0.25093 0.25093 1
4
 0.950334 0.252714 0.252714 1
4
 0.946074 0.250906 0.250906 1
4
 0.939511 0.242041 0.242041 1
4
 0.950495 0.249298 0.249298 1
4
 0.947139 0.245763 0.245763 1
4
 0.943318 0.242476 0.242476 1
4
 0.93909 0.24034 0.24034 1
4
 0.935983 0.241766 0.241766 1
4
 0.930794 0.237925 0.237925 1
4
 0.934513 0.237845 0.237845 1
4
 0.929854 0.235942 0.235942 1
4
 0.93184 0.240148 0.240148 1
4
 0.942098 0.248859 0.248859 1
4
 0.937981 0.246075 0.246075 1
4
 0.93252 0.242006 0.242006 1
4
 0.925738 0.234363 0.234363 1
4
 0.92735 0.238162 0.238162 1
4
 1 0.321294 0.321294 0.989518
4
 1 0.314719 0.314719 0.996432
4
 1 0.318222 0.318222 0.995146
4
 1 0.321816 0.321816 0.986356
4
 1 0.318356 0.318356 0.989407
4
 1 0.326843 0.326843 0.984034
4
 1 0.323903 0.323903 0.990687
4
 1 0.320793 0.320793 0.993137
4
 1 0.324416 0.324416 0.984365
4
 0.970823 0.295079 0.295079 1
4
 0.97317 0.295074 0.295074 1
4
 0.967884 0.289689 0.289689 1
4
 0.97799 0.30181 0.30181 1
4
 0.975193 0.298198 0.298198 1
4
 0.973879 0.300348 0.300348 1
4
 0.984105 0.303805 0.303805 1
4
 0.980354 0.301805 0.301805 1
4
 0.979033 0.30398 0.30398 1
4
 0.98676 0.309626 0.309626 1
4
 0.987869 0.308892 0.308892 1
4
 0.981291 0.300169 0.300169 1
4
 0.983277 0.299189 0.299189 1
4
 0.97997 0.297334 0.297334 1
4
 0.987594 0.302071 0.302071 1
4
 0.989147 0.305519 0.305519 1
4
 0.988813 0.307218 0.307218 1
4
 0.972242 0.292751 0.292751 1
4
 0.976235 0.295377 0.295377 1
4
 0.978211 0.294412 0.294412 1
4
 0.980466 0.294134 0.294134 1
4
 0.976401 0.291384 0.291384 1
4
 0.985821 0.299103 0.299103 1
4
 0.984936 0.296886 0.296886 1
4
 0.970933 0.289986 0.289986 1
4
 0.965659 0.284694 0.284694 1
4
 0.973117 0.289577 0.289577 1
4
 0.990433 0.276165 0.276165 1
4
 0.987766 0.275988 0.275988 1
4
 0.996233 0.280808 0.280808 1
4
 0.989598 0.278392 0.278392 1
4
 0.997296 0.283299 0.283299 1
4
 0.985385 0.272791 0.272791 1
4
 0.993831 0.277554 0.277554 1
4
 0.983009 0.269181 0.269181 1
4
 0.989377 0.272371 0.272371 1
4
 0.995675 0.277185 0.277185 1
4
 0.978492 0.269691 0.269691 1
4
 0.980363 0.269008 0.269008 1
4
 0.984554 0.27499 0.27499 1
4
 1 0.28452 0.28452 0.999282
4
 1 0.281421 0.281421 0.998496
4
 1 0.283908 0.283908 0.995921
4
 0.976133 0.266122 0.266122 1
4
 0.970994 0.26338 0.26338 1
4
 0.969196 0.263731 0.263731 1
4
 0.972576 0.266955 0.266955 1
4
 0.980307 0.27204 0.27204 1
4
 0.954935 0.253973 0.253973 1
4
 0.96231 0.257041 0.257041 1
4
 0.960528 0.257383 0.257383 1
4
 0.953542 0.250504 0.250504 1
4
 0.957997 0.253505 0.253505 1
4
 0.97285 0.262714 0.262714 1
4
 0.979263 0.264747 0.264747 1
4
 0.97367 0.261483 0.261483 1
4
 0.958534 0.257247 0.257247 1
4
 0.954345 0.255644 0.255644 1
4
 0.965937 0.260354 0.260354 1
4
 0.963391 0.256432 0.256432 1
4
 0.968544 0.258789 0.258789 1
4
 0.96751 0.263888 0.263888 1
4
 0.959934 0.259076 0.259076 1
4
 0.945007 0.270195 0.270195 1
4
 0.940085 0.267982 0.267982 1
4
 0.943787 0.270459 0.270459 1
4
 0.944371 0.268244 0.268244 1
4
 0.938556 0.263953 0.263953 1
4
 0.949155 0.274622 0.274622 1
4
 0.952411 0.27785 0.27785 1
4
 0.949742 0.272373 0.272373 1
4
 0.944211 0.272374 0.272374 1
4
 0.94241 0.27261 0.27261 1
4
 0.951182 0.278122 0.278122 1
4
 0.946121 0.275129 0.275129 1
4
 0.950433 0.282372 0.282372 1
4
 0.954927 0.283515 0.283515 1
4
 0.949847 0.280464 0.280464 1
4
 0.956161 0.288 0.288 1
4
 0.944899 0.277241 0.277241 1
4
 0.95118 0.28469 0.28469 1
4
 0.945748 0.280712 0.280712 1
4
 0.949367 0.278363 0.278363 1
4
 1 0.330519 0.330519 0.972225
4
 1 0.336366 0.336366 0.966782
4
 1 0.332244 0.332244 0.967976
4
 1 0.331627 0.331627 0.975123
4
 1 0.335441 0.335441 0.970698
4
 1 0.335917 0.335917 0.963421
4
 1 0.329164 0.329164 0.975451
4
 1 0.329334 0.329334 0.970479
4
 1 0.325089 0.325089 0.975779
4
 1 0.326281 0.326281 0.977974
4
 1 0.327585 0.327585 0.968301
4
 1 0.323363 0.323363 0.973589
4
 1 0.320961 0.320961 0.973917
4
 1 0.323498 0.323498 0.967974
4
 1 0.326533 0.326533 0.966291
4
 1 0.341491 0.341491 0.964776
4
 1 0.338383 0.338383 0.96776
4
 1 0.338864 0.338864 0.960505
4
 1 0.326786 0.326786 0.971515
4
 1 0.333031 0.333031 0.961475
4
 1 0.334712 0.334712 0.961691
4
 1 0.32999 0.32999 0.964232
4
 1 0.320179 0.320179 0.977149
4
 1 0.318646 0.318646 0.981383
4
 1 0.323756 0.323756 0.979017
4
 1 0.320275 0.320275 0.982045
4
 0.943207 0.260255 0.260255 1
4
 0.938875 0.25601 0.25601 1
4
 0.946815 0.263293 0.263293 1
4
 0.948731 0.26331 0.26331 1
4
 0.943579 0.258074 0.258074 1
4
 0.938505 0.258604 0.258604 1
4
 0.934194 0.254386 0.254386 1
4
 0.936083 0.259111 0.259111 1
4
 0.939137 0.260485 0.260485 1
4
 0.937978 0.256548 0.256548 1
4
 0.945912 0.263847 0.263847 1
4
 0.942942 0.262699 0.262699 1
4
 0.932989 0.250425 0.250425 1
4
 0.938348 0.254398 0.254398 1
4
 0.949316 0.268661 0.268661 1
4
 0.946549 0.265766 0.265766 1
4
 0.951452 0.266944 0.266944 1
4
 0.943259 0.266081 0.266081 1
4
 0.946336 0.267492 0.267492 1
4
 0.940509 0.263213 0.263213 1
4
 1 0.301332 0.301332 0.998501
4
 1 0.303306 0.303306 0.99464
4
 1 0.30571 0.30571 0.994473
4
 0.997908 0.300356 0.300356 1
4
 0.999983 0.304042 0.304042 1
4
 0.999592 0.297547 0.297547 1
4
 1 0.301689 0.301689 0.995142
4
 1 0.298743 0.298743 0.996484
4
 0.997404 0.298604 0.298604 1
4
 0.996285 0.29584 0.29584 1
4
 1 0.296694 0.296694 0.997883
4
 0.99763 0.293234 0.293234 1
4
 0.992935 0.290111 0.290111 1
4
 0.994888 0.293398 0.293398 1
4
 1 0.284427 0.284427 0.979833
4
 1 0.283084 0.283084 0.984521
4
 1 0.281669 0.281669 0.981595
4
 1 0.279414 0.279414 0.986512
4
 1 0.278841 0.278841 0.992458
4
 1 0.278077 0.278077 0.990787
4
 1 0.286509 0.286509 0.978404
4
 1 0.285076 0.285076 0.975496
4
 1 0.290003 0.290003 0.97298
4
 1 0.282832 0.282832 0.989843
4
 1 0.286713 0.286713 0.983251
4
 1 0.288634 0.288634 0.977636
4
 1 0.280052 0.280052 0.982146
4
 1 0.276482 0.276482 0.991343
4
 0.982613 0.308126 0.308126 1
4
 0.977001 0.305343 0.305343 1
4
 0.972403 0.302091 0.302091 1
4
 1 0.326857 0.326857 0.987189
4
 1 0.333617 0.333617 0.97611
4
 1 0.331727 0.331727 0.980009
4
 1 0.327374 0.327374 0.980889
4
 0.99824 0.319826 0.319826 1
4
 1 0.328744 0.328744 0.986635
4
 1 0.326176 0.326176 0.992915
4
 0.999362 0.319068 0.319068 1
4
 1 0.320807 0.320807 0.996321
4
 1 0.323545 0.323545 0.997441
4
 0.991481 0.313105 0.313105 1
4
 0.984712 0.311014 0.311014 1
4
 0.994659 0.318312 0.318312 1
4
 0.989534 0.314801 0.314801 1
4
 0.968648 0.279211 0.279211 1
4
 0.963981 0.277365 0.277365 1
4
 0.962467 0.273778 0.273778 1
4
 0.958046 0.271114 0.271114 1
4
 0.97569 0.285315 0.285315 1
4
 0.969899 0.281273 0.281273 1
4
 0.973884 0.280971 0.280971 1
4
 0.968376 0.277636 0.277636 1
4
 0.980578 0.288095 0.288095 1
4
 0.979698 0.28596 0.28596 1
4
 0.970989 0.283428 0.283428 1
4
 0.978103 0.289758 0.289758 1
4
 0.974047 0.287049 0.287049 1
4
 0.981679 0.290302 0.290302 1
4
 0.982561 0.292469 0.292469 1
4
 0.968266 0.282983 0.282983 1
4
 0.964793 0.280706 0.280706 1
4
 0.97536 0.289304 0.289304 1
4
 0.983886 0.294766 0.294766 1
4
 0.967831 0.284293 0.284293 1
4
 0.961658 0.268721 0.268721 1
4
 0.960418 0.266306 0.266306 1
4
 0.969411 0.275009 0.275009 1
4
 0.963929 0.271744 0.271744 1
4
 0.968976 0.273076 0.273076 1
4
 0.961875 0.266541 0.266541 1
4
 0.956435 0.263817 0.263817 1
4
 0.959931 0.269204 0.269204 1
4
 0.95386 0.263208 0.263208 1
4
 0.955522 0.266584 0.266584 1
4
 0.956651 0.261677 0.261677 1
4
 0.951187 0.25759 0.25759 1
4
 0.95263 0.260844 0.260844 1
4
 0.96767 0.275503 0.275503 1
4
 0.972737 0.276853 0.276853 1
4
 0.978214 0.281923 0.281923 1
4
 0.978983 0.283764 0.283764 1
4
 0.957777 0.269584 0.269584 1
4
 1 0.359954 0.359954 0.946268
4
 1 0.35649 0.35649 0.951222
4
 1 0.358586 0.358586 0.945896
4
 0.953104 0.289013 0.289013 1
4
 0.949205 0.289324 0.289324 1
4
 0.947661 0.284974 0.284974 1
4
 0.953371 0.29211 0.29211 1
4
 0.955569 0.292321 0.292321 1
4
 0.951447 0.286306 0.286306 1
4
 0.959387 0.293688 0.293688 1
4
 0.963381 0.295965 0.295965 1
4
 0.953264 0.293792 0.293792 1
4
 0.962083 0.300093 0.300093 1
4
 0.964301 0.30031 0.30031 1
4
 0.971583 0.307589 0.307589 1
4
 0.968316 0.302639 0.302639 1
4
 0.959655 0.296835 0.296835 1
4
 0.965873 0.299353 0.299353 1
4
 0.978601 0.272201 0.272201 1
4
 0.963282 0.262243 0.262243 1
4
 0.972958 0.269618 0.269618 1
4
 0.966532 0.265203 0.265203 1
4
 0.994053 0.282275 0.282275 1
4
 0.990876 0.281385 0.281385 1
4
 0.980691 0.274753 0.274753 1
4
 0.985992 0.278334 0.278334 1
4
 1 0.286122 0.286122 0.994859
4
 1 0.289347 0.289347 0.997433
4
 0.998585 0.286345 0.286345 1
4
 1 0.288597 0.288597 0.993911
4
 1 0.290191 0.290191 0.994525
4
 0.95692 0.259675 0.259675 1
4
 0.951455 0.25562 0.25562 1
4
 0.958964 0.260367 0.260367 1
4
 0.989259 0.299746 0.299746 1
4
 0.991706 0.30543 0.30543 1
4
 0.994382 0.306136 0.306136 1
4
 0.994048 0.303254 0.303254 1
4
 0.987484 0.295319 0.295319 1
4
 0.985712 0.290959 0.290959 1
4
 0.990205 0.295154 0.295154 1
4
 0.992264 0.298776 0.298776 1
4
 0.993156 0.301007 0.301007 1
4
 1 0.323968 0.323968 0.952605
4
 1 0.332483 0.332483 0.950523
4
 1 0.327412 0.327412 0.953623
4
 1 0.329695 0.329695 0.952714
4
 1 0.3254 0.3254 0.954212
4
 1 0.320002 0.320002 0.956625
4
 1 0.306358 0.306358 0.980389
4
 1 0.308756 0.308756 0.979564
4
 1 0.312562 0.312562 0.975009
4
 1 0.313444 0.313444 0.971512
4
 1 0.305746 0.305746 0.983808
4
 1 0.303518 0.303518 0.98796
4
 1 0.300555 0.300555 0.989292
4
 1 0.301373 0.301373 0.985078
4
 1 0.311938 0.311938 0.97841
4
 1 0.310055 0.310055 0.982594
4
 1 0.305894 0.305894 0.987128
4
 1 0.308319 0.308319 0.986963
4
 1 0.31679 0.31679 0.975668
4
 1 0.314878 0.314878 0.97984
4
 1 0.31628 0.31628 0.981713
4
 1 0.320313 0.320313 0.971513
4
 1 0.313877 0.313877 0.978026
4
 1 0.319294 0.319294 0.969714
4
 1 0.316674 0.316674 0.970367
4
 1 0.313371 0.313371 0.984086
4
 1 0.310235 0.310235 0.986575
4
 0.979319 0.261797 0.261797 1
4
 0.982955 0.262848 0.262848 1
4
 0.973726 0.256851 0.256851 1
4
 0.98417 0.265108 0.265108 1
4
 0.985607 0.267885 0.267885 1
4
 0.974929 0.260792 0.260792 1
4
 0.974929 0.259059 0.259059 1
4
 0.991715 0.268185 0.268185 1
4
 0.998307 0.273561 0.273561 1
4
 0.999991 0.273271 0.273271 1
4
 0.989267 0.26896 0.26896 1
4
 0.994391 0.271507 0.271507 1
4
 0.995843 0.274351 0.274351 1
4
 0.997018 0.276581 0.276581 1
4
 1 0.278593 0.278593 0.997823
4
 1 0.275914 0.275914 0.997318
4
 1 0.283005 0.283005 0.994077
4
 1 0.284375 0.284375 0.99001
4
 1 0.286889 0.286889 0.987457
4
 1 0.289244 0.289244 0.986349
4
 1 0.287977 0.287977 0.990567
4
 0.965175 0.268329 0.268329 1
4
 0.977775 0.279941 0.279941 1
4
 0.970992 0.272765 0.272765 1
4
 0.975856 0.276804 0.276804 1
4
 0.95263 0.257817 0.257817 1
4
 0.963876 0.266238 0.266238 1
4
 0.960149 0.262605 0.262605 1
4
 1 0.3007 0.3007 0.992631
4
 1 0.306072 0.306072 0.991128
4
 1 0.294858 0.294858 0.995308
4
 0.999369 0.289177 0.289177 1
4
 1 0.292111 0.292111 0.999789
4
 0.999201 0.290222 0.290222 1
4
 1 0.295661 0.295661 0.99107
4
 1 0.292832 0.292832 0.993744
4
 1 0.294991 0.294991 0.998443
4
 1 0.298576 0.298576 0.989736
4
 1 0.340553 0.340553 0.968685
4
 1 0.342305 0.342305 0.969556
4
 1 0.335542 0.335542 0.975562
4
 1 0.339189 0.339189 0.972554
4
 1 0.337268 0.337268 0.976439
4
 1 0.333362 0.333362 0.982268
4
 1 0.331036 0.331036 0.985694
4
 1 0.336986 0.336986 0.97924
4
 1 0.339847 0.339847 0.977208
4
 1 0.335911 0.335911 0.983041
4
 1 0.330759 0.330759 0.988521
4
 1 0.333904 0.333904 0.987689
4
 1 0.336739 0.336739 0.98564
4
 1 0.331574 0.331574 0.991134
4
 1 0.325801 0.325801 0.99649
4
 1 0.327569 0.327569 0.996434
4
 1 0.333252 0.333252 0.994312
4
 1 0.330684 0.330684 0.995596
4
 1 0.338033 0.338033 0.952501
4
 1 0.335292 0.335292 0.953785
4
 1 0.336713 0.336713 0.956951
4
 1 0.331962 0.331962 0.959479
4
 1 0.338306 0.338306 0.949564
4
 1 0.339739 0.339739 0.952716
4
 1 0.343709 0.343709 0.946849
4
 1 0.332748 0.332748 0.953035
4
 1 0.33223 0.33223 0.95652
4
 1 0.342366 0.342366 0.951273
4
 0.946342 0.243648 0.243648 1
4
 0.948896 0.244211 0.244211 1
4
 0.954614 0.24991 0.24991 1
4
 0.954079 0.248337 0.248337 1
4
 0.940885 0.238138 0.238138 1
4
 0.945068 0.240945 0.240945 1
4
 0.93651 0.235711 0.235711 1
4
 0.9383 0.238272 0.238272 1
4
 0.943425 0.238688 0.238688 1
4
 0.934882 0.233504 0.233504 1
4
 0.952794 0.245581 0.245581 1
4
 0.950604 0.242962 0.242962 1
4
 0.958536 0.251312 0.251312 1
4
 0.964204 0.25523 0.25523 1
4
 0.963663 0.253623 0.253623 1
4
 0.959937 0.249746 0.249746 1
4
 0.955795 0.247066 0.247066 1
4
 0.969362 0.255865 0.255865 1
4
 0.965613 0.253639 0.253639 1
4
 0.965613 0.251953 0.251953 1
4
 0.95773 0.247082 0.247082 1
4
 0.984054 0.286929 0.286929 1
4
 0.981351 0.281873 0.281873 1
4
 0.985492 0.285141 0.285141 1
4
 0.98743 0.288372 0.288372 1
4
 0.989317 0.292966 0.292966 1
4
 0.988207 0.290255 0.290255 1
4
 0.948627 0.256996 0.256996 1
4
 0.943051 0.250951 0.250951 1
4
 0.944163 0.25299 0.25299 1
4
 0.95172 0.26358 0.26358 1
4
 0.945595 0.256186 0.256186 1
4
 0.946551 0.258339 0.258339 1
4
 0.948199 0.261652 0.261652 1
4
 0.995225 0.286473 0.286473 1
4
 0.990487 0.282347 0.282347 1
4
 0.996063 0.289441 0.289441 1
4
 0.992378 0.288284 0.288284 1
4
 0.99032 0.283368 0.283368 1
4
 0.991376 0.286359 0.286359 1
4
 0.926832 0.230049 0.230049 1
4
 0.928603 0.232548 0.232548 1
4
 0.923974 0.230688 0.230688 1
4
 0.922057 0.227132 0.227132 1
4
 0.932313 0.233635 0.233635 1
4
 0.92574 0.228194 0.228194 1
4
 0.929437 0.234284 0.234284 1
4
 0.992931 0.310635 0.310635 1
4
 0.995947 0.30963 0.30963 1
4
 0.997233 0.313481 0.313481 1
4
 0.996897 0.315225 0.315225 1
4
 0.999925 0.314205 0.314205 1
4
 0.998299 0.307424 0.307424 1
4
 1 0.290209 0.290209 0.977801
4
 1 0.291536 0.291536 0.977636
4
 1 0.290644 0.290644 0.982314
4
 1 0.29349 0.29349 0.972053
4
 1 0.293929 0.293929 0.976539
4
 1 0.291747 0.291747 0.985408
4
 1 0.294677 0.294677 0.98248
4
 0.978097 0.311813 0.311813 1
4
 0.973167 0.306609 0.306609 1
4
 0.981839 0.317035 0.317035 1
4
 0.979417 0.310098 0.310098 1
4
 0.97448 0.304923 0.304923 1
4
 0.983882 0.311958 0.311958 1
4
 0.974808 0.306796 0.306796 1
4
 0.983494 0.317228 0.317228 1
4
 0.98471 0.316243 0.316243 1
4
 0.984213 0.313874 0.313874 1
4
 0.999024 0.324609 0.324609 1
4
 0.993821 0.319278 0.319278 1
4
 0.998742 0.330951 0.330951 1
4
 1 0.329226 0.329226 0.999629
4
 0.995663 0.326384 0.326384 1
4
 0.991534 0.326039 0.326039 1
4
 0.99276 0.325026 0.325026 1
4
 0.988477 0.321539 0.321539 1
4
 0.994379 0.323451 0.323451 1
4
 0.993877 0.321028 0.321028 1
4
 0.9892 0.318139 0.318139 1
4
 0.936717 0.25034 0.25034 1
4
 0.937664 0.252444 0.252444 1
4
 0.931106 0.246268 0.246268 1
4
 0.940037 0.25016 0.25016 1
4
 0.933462 0.24404 0.24404 1
4
 0.934406 0.246091 0.246091 1
4
 0.942097 0.254312 0.254312 1
4
 0.935508 0.248091 0.248091 1
4
 0.928965 0.242022 0.242022 1
4
 1 0.311616 0.311616 0.988461
4
 1 0.316375 0.316375 0.986632
4
 1 0.321449 0.321449 0.984254
4
 1 0.30682 0.30682 0.996486
4
 0.995893 0.300838 0.300838 1
4
 0.992711 0.29444 0.29444 1
4
 1 0.320195 0.320195 0.966235
4
 1 0.324121 0.324121 0.961311
4
 1 0.326382 0.326382 0.960394
4
 1 0.325873 0.325873 0.963906
4
 1 0.321462 0.321462 0.961959
4
 1 0.319486 0.319486 0.962553
4
 1 0.327672 0.327672 0.956143
4
 1 0.323404 0.323404 0.957647
4
 1 0.329443 0.329443 0.958725
4
 0.972356 0.271391 0.271391 1
4
 0.977228 0.27541 0.27541 1
4
 0.968596 0.267688 0.267688 1
4
 0.980306 0.275692 0.275692 1
4
 0.974542 0.274647 0.274647 1
4
 0.965935 0.266947 0.266947 1
4
 0.98251 0.279 0.279 1
4
 0.983558 0.281945 0.281945 1
4
 0.986656 0.282234 0.282234 1
4
 0.989651 0.288446 0.288446 1
4
 1 0.296524 0.296524 0.98818
4
 1 0.297857 0.297857 0.984635
4
 1 0.292073 0.292073 0.990234
4
 1 0.293386 0.293386 0.986682
4
 1 0.295007 0.295007 0.987292
1
 1

